solving instance uflp nldep holmberg 69 cubic
Couenne 0.5.8 -- an Open-Source solver for Mixed Integer Nonlinear Optimization
Mailing list: couenne@list.coin-or.org
Instructions: http://www.coin-or.org/Couenne
couenne: 
ANALYSIS TEST: Reformulating problem: Couenne: new cutoff value 9.7971000000e+04 (9.63663 seconds)
9.6 seconds
NLP0012I 
              Num      Status      Obj             It       time                 Location
NLP0014I             1         OPT 15559.121       40 4.989105
NLP0014I             2         OPT 15559.122       31 2.699328
Couenne: new cutoff value 1.5559114860e+04 (17.6533 seconds)
Loaded instance "/tmp/jl_XHAJLz/model.nl"
Constraints:         6260
Variables:           6090 (30 integer)
Auxiliaries:          289 (0 integer)

Coin0506I Presolve 6500 (-1) rows, 6150 (-229) columns and 30689 (-230) elements
Clp0006I 0  Obj 0 Primal inf 47593.976 (200) Dual inf 2.1342952e+13 (6001)
Clp0029I End of values pass after 30 iterations
Clp0006I 30  Obj 0 Primal inf 47593.976 (200) Dual inf 2.1342952e+13 (6030)
Clp0006I 237  Obj 6574.3818 Primal inf 39557.805 (187) Dual inf 1.4229853e+13 (5376)
Clp0006I 466  Obj 15411.128 Dual inf 51.284885 (226)
Clp0006I 627  Obj 13401.082
Clp0000I Optimal - objective value 13401.082
Clp0000I Optimal - objective value 13401.082
Clp0032I Optimal objective 13401.08211 - 627 iterations time 0.102, Presolve 0.03
Clp0000I Optimal - objective value 13401.082
NLP Heuristic: time limit reached.
Clp0000I Optimal - objective value 13401.082
Optimality Based BT: 0 improved bounds
Probing: 0 improved bounds
NLP Heuristic: time limit reached.
Cbc0031I 27 added rows had average density of 2
Cbc0013I At root node, 27 cuts changed objective from 13401.082 to 13401.697 in 8 passes
Cbc0014I Cut generator 0 (Couenne convexifier cuts) - 196 row cuts average 2.0 elements, 264 column cuts (264 active)
Cbc0010I After 0 nodes, 1 on tree, 1e+50 best solution, best possible -1.7976931e+308 (43.43 seconds)
Optimality Based BT: 0 improved bounds
Optimality Based BT: 0 improved bounds
Optimality Based BT: 0 improved bounds
Cbc0010I After 100 nodes, 1 on tree, 1e+50 best solution, best possible 15033.227 (163.75 seconds)
Cbc0010I After 200 nodes, 18 on tree, 1e+50 best solution, best possible 15089.581 (176.06 seconds)
Cbc0010I After 300 nodes, 39 on tree, 1e+50 best solution, best possible 15089.581 (192.53 seconds)
Cbc0010I After 400 nodes, 46 on tree, 1e+50 best solution, best possible 15089.581 (207.75 seconds)
Cbc0010I After 500 nodes, 47 on tree, 1e+50 best solution, best possible 15177.237 (220.15 seconds)
Cbc0010I After 600 nodes, 52 on tree, 1e+50 best solution, best possible 15179.957 (231.44 seconds)
Cbc0010I After 700 nodes, 57 on tree, 1e+50 best solution, best possible 15196.879 (243.45 seconds)
Cbc0010I After 800 nodes, 56 on tree, 1e+50 best solution, best possible 15213.886 (254.80 seconds)
Cbc0010I After 900 nodes, 55 on tree, 1e+50 best solution, best possible 15252.751 (265.51 seconds)
Cbc0010I After 1000 nodes, 81 on tree, 1e+50 best solution, best possible 15252.751 (281.05 seconds)
Cbc0010I After 1100 nodes, 86 on tree, 1e+50 best solution, best possible 15335.905 (293.99 seconds)
Cbc0010I After 1200 nodes, 89 on tree, 1e+50 best solution, best possible 15424.992 (305.19 seconds)
Cbc0010I After 1300 nodes, 114 on tree, 1e+50 best solution, best possible 15425.05 (321.52 seconds)
Cbc0010I After 1400 nodes, 143 on tree, 1e+50 best solution, best possible 15425.753 (338.05 seconds)
Cbc0010I After 1500 nodes, 165 on tree, 1e+50 best solution, best possible 15426.297 (353.24 seconds)
Cbc0010I After 1600 nodes, 186 on tree, 1e+50 best solution, best possible 15426.297 (370.25 seconds)
Cbc0010I After 1700 nodes, 203 on tree, 1e+50 best solution, best possible 15426.297 (386.90 seconds)
Cbc0010I After 1800 nodes, 238 on tree, 1e+50 best solution, best possible 15426.297 (404.04 seconds)
Couenne: new cutoff value 1.5557857082e+04 (431.895 seconds)
Cbc0010I After 1900 nodes, 276 on tree, 1e+50 best solution, best possible 15430.85 (419.59 seconds)
Cbc0010I After 2000 nodes, 296 on tree, 1e+50 best solution, best possible 15432.761 (435.38 seconds)
Cbc0010I After 2100 nodes, 318 on tree, 1e+50 best solution, best possible 15433.6 (451.25 seconds)
Cbc0010I After 2200 nodes, 342 on tree, 1e+50 best solution, best possible 15434.717 (468.48 seconds)
Cbc0010I After 2300 nodes, 364 on tree, 1e+50 best solution, best possible 15435.575 (484.37 seconds)
Cbc0010I After 2400 nodes, 390 on tree, 1e+50 best solution, best possible 15438.486 (500.50 seconds)
Cbc0010I After 2500 nodes, 419 on tree, 1e+50 best solution, best possible 15441.709 (517.91 seconds)
Cbc0010I After 2600 nodes, 433 on tree, 1e+50 best solution, best possible 15444.109 (532.93 seconds)
Cbc0010I After 2700 nodes, 449 on tree, 1e+50 best solution, best possible 15450.53 (548.29 seconds)
Cbc0010I After 2800 nodes, 464 on tree, 1e+50 best solution, best possible 15457.319 (563.31 seconds)
Cbc0010I After 2900 nodes, 483 on tree, 1e+50 best solution, best possible 15461.318 (579.28 seconds)
Cbc0010I After 3000 nodes, 503 on tree, 1e+50 best solution, best possible 15463.833 (595.67 seconds)
Cbc0010I After 3100 nodes, 517 on tree, 1e+50 best solution, best possible 15464.498 (610.84 seconds)
Cbc0010I After 3200 nodes, 533 on tree, 1e+50 best solution, best possible 15467.299 (626.81 seconds)
Cbc0010I After 3300 nodes, 552 on tree, 1e+50 best solution, best possible 15468.373 (643.16 seconds)
Cbc0010I After 3400 nodes, 574 on tree, 1e+50 best solution, best possible 15469.575 (660.08 seconds)
Cbc0010I After 3500 nodes, 584 on tree, 1e+50 best solution, best possible 15470.357 (674.58 seconds)
Cbc0010I After 3600 nodes, 602 on tree, 1e+50 best solution, best possible 15471.21 (690.39 seconds)
Cbc0010I After 3700 nodes, 611 on tree, 1e+50 best solution, best possible 15471.342 (704.75 seconds)
Cbc0010I After 3800 nodes, 625 on tree, 1e+50 best solution, best possible 15471.541 (720.37 seconds)
Cbc0010I After 3900 nodes, 642 on tree, 1e+50 best solution, best possible 15471.875 (736.00 seconds)
Cbc0010I After 4000 nodes, 656 on tree, 1e+50 best solution, best possible 15472.324 (751.38 seconds)
Cbc0010I After 4100 nodes, 673 on tree, 1e+50 best solution, best possible 15472.415 (767.35 seconds)
Cbc0010I After 4200 nodes, 690 on tree, 1e+50 best solution, best possible 15473.535 (783.00 seconds)
Cbc0010I After 4300 nodes, 704 on tree, 1e+50 best solution, best possible 15474.479 (798.30 seconds)
Cbc0010I After 4400 nodes, 716 on tree, 1e+50 best solution, best possible 15474.973 (813.46 seconds)
Cbc0010I After 4500 nodes, 733 on tree, 1e+50 best solution, best possible 15475.46 (829.32 seconds)
Cbc0010I After 4600 nodes, 749 on tree, 1e+50 best solution, best possible 15475.874 (845.08 seconds)
Cbc0010I After 4700 nodes, 763 on tree, 1e+50 best solution, best possible 15477.587 (861.18 seconds)
Cbc0010I After 4800 nodes, 771 on tree, 1e+50 best solution, best possible 15478.549 (875.49 seconds)
Cbc0010I After 4900 nodes, 784 on tree, 1e+50 best solution, best possible 15478.897 (890.81 seconds)
Cbc0010I After 5000 nodes, 800 on tree, 1e+50 best solution, best possible 15479.309 (906.99 seconds)
Cbc0010I After 5100 nodes, 807 on tree, 1e+50 best solution, best possible 15480.527 (921.43 seconds)
Cbc0010I After 5200 nodes, 819 on tree, 1e+50 best solution, best possible 15481.356 (936.82 seconds)
Cbc0010I After 5300 nodes, 828 on tree, 1e+50 best solution, best possible 15482.43 (951.84 seconds)
Cbc0010I After 5400 nodes, 839 on tree, 1e+50 best solution, best possible 15482.504 (966.62 seconds)
Cbc0010I After 5500 nodes, 849 on tree, 1e+50 best solution, best possible 15482.595 (982.03 seconds)
Cbc0010I After 5600 nodes, 858 on tree, 1e+50 best solution, best possible 15483.297 (997.35 seconds)
Cbc0010I After 5700 nodes, 871 on tree, 1e+50 best solution, best possible 15483.482 (1012.94 seconds)
Cbc0010I After 5800 nodes, 882 on tree, 1e+50 best solution, best possible 15485.229 (1028.01 seconds)
Cbc0010I After 5900 nodes, 891 on tree, 1e+50 best solution, best possible 15486.073 (1042.96 seconds)
Cbc0010I After 6000 nodes, 904 on tree, 1e+50 best solution, best possible 15486.855 (1059.37 seconds)
Cbc0010I After 6100 nodes, 914 on tree, 1e+50 best solution, best possible 15488.231 (1074.57 seconds)
Cbc0010I After 6200 nodes, 922 on tree, 1e+50 best solution, best possible 15489.679 (1089.83 seconds)
Cbc0010I After 6300 nodes, 930 on tree, 1e+50 best solution, best possible 15490.165 (1104.40 seconds)
Cbc0010I After 6400 nodes, 936 on tree, 1e+50 best solution, best possible 15491.565 (1118.94 seconds)
Cbc0010I After 6500 nodes, 944 on tree, 1e+50 best solution, best possible 15491.879 (1133.36 seconds)
Cbc0010I After 6600 nodes, 947 on tree, 1e+50 best solution, best possible 15492.737 (1147.30 seconds)
Cbc0010I After 6700 nodes, 954 on tree, 1e+50 best solution, best possible 15493.446 (1162.07 seconds)
Cbc0010I After 6800 nodes, 955 on tree, 1e+50 best solution, best possible 15493.716 (1176.11 seconds)
Cbc0010I After 6900 nodes, 961 on tree, 1e+50 best solution, best possible 15493.931 (1190.66 seconds)
Cbc0010I After 7000 nodes, 965 on tree, 1e+50 best solution, best possible 15495.031 (1204.81 seconds)
Cbc0010I After 7100 nodes, 971 on tree, 1e+50 best solution, best possible 15496.458 (1219.09 seconds)
Cbc0010I After 7200 nodes, 972 on tree, 1e+50 best solution, best possible 15496.687 (1232.68 seconds)
Cbc0010I After 7300 nodes, 974 on tree, 1e+50 best solution, best possible 15497.011 (1246.69 seconds)
Cbc0010I After 7400 nodes, 976 on tree, 1e+50 best solution, best possible 15497.717 (1260.55 seconds)
Cbc0010I After 7500 nodes, 980 on tree, 1e+50 best solution, best possible 15498.952 (1274.95 seconds)
Cbc0010I After 7600 nodes, 983 on tree, 1e+50 best solution, best possible 15499.23 (1289.04 seconds)
Cbc0010I After 7700 nodes, 985 on tree, 1e+50 best solution, best possible 15500.299 (1302.83 seconds)
Cbc0010I After 7800 nodes, 988 on tree, 1e+50 best solution, best possible 15500.758 (1317.32 seconds)
Cbc0010I After 7900 nodes, 991 on tree, 1e+50 best solution, best possible 15501.252 (1331.43 seconds)
Cbc0010I After 8000 nodes, 997 on tree, 1e+50 best solution, best possible 15501.987 (1345.67 seconds)
Cbc0010I After 8100 nodes, 1000 on tree, 1e+50 best solution, best possible 15503.096 (1359.82 seconds)
Cbc0010I After 8200 nodes, 1001 on tree, 1e+50 best solution, best possible 15503.382 (1373.53 seconds)
Cbc0010I After 8300 nodes, 1003 on tree, 1e+50 best solution, best possible 15504.146 (1387.30 seconds)
Cbc0010I After 8400 nodes, 1006 on tree, 1e+50 best solution, best possible 15504.398 (1401.22 seconds)
Cbc0010I After 8500 nodes, 1006 on tree, 1e+50 best solution, best possible 15505.206 (1414.73 seconds)
Cbc0010I After 8600 nodes, 1009 on tree, 1e+50 best solution, best possible 15505.872 (1428.99 seconds)
Cbc0010I After 8700 nodes, 1011 on tree, 1e+50 best solution, best possible 15506.391 (1442.74 seconds)
Cbc0010I After 8800 nodes, 1011 on tree, 1e+50 best solution, best possible 15506.859 (1456.31 seconds)
Cbc0010I After 8900 nodes, 1014 on tree, 1e+50 best solution, best possible 15507.475 (1470.15 seconds)
Cbc0010I After 9000 nodes, 1014 on tree, 1e+50 best solution, best possible 15507.857 (1483.62 seconds)
Cbc0010I After 9100 nodes, 1015 on tree, 1e+50 best solution, best possible 15508.322 (1497.31 seconds)
Cbc0010I After 9200 nodes, 1017 on tree, 1e+50 best solution, best possible 15509.078 (1511.63 seconds)
Cbc0010I After 9300 nodes, 1019 on tree, 1e+50 best solution, best possible 15509.523 (1525.19 seconds)
Cbc0010I After 9400 nodes, 1036 on tree, 1e+50 best solution, best possible 15509.836 (1542.38 seconds)
Cbc0010I After 9500 nodes, 1034 on tree, 1e+50 best solution, best possible 15510.314 (1556.02 seconds)
Cbc0010I After 9600 nodes, 1032 on tree, 1e+50 best solution, best possible 15510.819 (1569.05 seconds)
Cbc0010I After 9700 nodes, 1034 on tree, 1e+50 best solution, best possible 15511.353 (1582.95 seconds)
Cbc0010I After 9800 nodes, 1035 on tree, 1e+50 best solution, best possible 15511.795 (1596.67 seconds)
Cbc0010I After 9900 nodes, 1039 on tree, 1e+50 best solution, best possible 15512.13 (1611.10 seconds)
Cbc0010I After 10000 nodes, 1039 on tree, 1e+50 best solution, best possible 15512.422 (1625.05 seconds)
Cbc0010I After 10100 nodes, 1038 on tree, 1e+50 best solution, best possible 15512.909 (1638.48 seconds)
Cbc0010I After 10200 nodes, 1038 on tree, 1e+50 best solution, best possible 15513.345 (1651.91 seconds)
Cbc0010I After 10300 nodes, 1049 on tree, 1e+50 best solution, best possible 15513.603 (1668.06 seconds)
Cbc0010I After 10400 nodes, 1058 on tree, 1e+50 best solution, best possible 15513.765 (1683.03 seconds)
Cbc0010I After 10500 nodes, 1058 on tree, 1e+50 best solution, best possible 15514.531 (1696.71 seconds)
Cbc0010I After 10600 nodes, 1068 on tree, 1e+50 best solution, best possible 15514.886 (1712.65 seconds)
Cbc0010I After 10700 nodes, 1082 on tree, 1e+50 best solution, best possible 15515.042 (1728.90 seconds)
Cbc0010I After 10800 nodes, 1090 on tree, 1e+50 best solution, best possible 15515.401 (1744.37 seconds)
Cbc0010I After 10900 nodes, 1092 on tree, 1e+50 best solution, best possible 15515.737 (1758.63 seconds)
Cbc0010I After 11000 nodes, 1098 on tree, 1e+50 best solution, best possible 15516.243 (1773.75 seconds)
Cbc0010I After 11100 nodes, 1112 on tree, 1e+50 best solution, best possible 15516.536 (1790.08 seconds)
Cbc0010I After 11200 nodes, 1120 on tree, 1e+50 best solution, best possible 15516.861 (1805.32 seconds)
Cbc0010I After 11300 nodes, 1127 on tree, 1e+50 best solution, best possible 15517.275 (1820.43 seconds)
Cbc0010I After 11400 nodes, 1132 on tree, 1e+50 best solution, best possible 15517.538 (1834.96 seconds)
Cbc0010I After 11500 nodes, 1132 on tree, 1e+50 best solution, best possible 15517.722 (1849.15 seconds)
Cbc0010I After 11600 nodes, 1137 on tree, 1e+50 best solution, best possible 15518.123 (1864.05 seconds)
Cbc0010I After 11700 nodes, 1141 on tree, 1e+50 best solution, best possible 15518.636 (1878.75 seconds)
Cbc0010I After 11800 nodes, 1152 on tree, 1e+50 best solution, best possible 15518.82 (1895.17 seconds)
Cbc0010I After 11900 nodes, 1168 on tree, 1e+50 best solution, best possible 15518.914 (1911.81 seconds)
Cbc0010I After 12000 nodes, 1181 on tree, 1e+50 best solution, best possible 15519.071 (1927.94 seconds)
Cbc0010I After 12100 nodes, 1188 on tree, 1e+50 best solution, best possible 15519.309 (1943.36 seconds)
Cbc0010I After 12200 nodes, 1199 on tree, 1e+50 best solution, best possible 15519.708 (1959.95 seconds)
Cbc0010I After 12300 nodes, 1211 on tree, 1e+50 best solution, best possible 15520.196 (1976.30 seconds)
Cbc0010I After 12400 nodes, 1221 on tree, 1e+50 best solution, best possible 15520.34 (1992.50 seconds)
Cbc0010I After 12500 nodes, 1230 on tree, 1e+50 best solution, best possible 15520.568 (2008.06 seconds)
Cbc0010I After 12600 nodes, 1248 on tree, 1e+50 best solution, best possible 15520.738 (2025.36 seconds)
Cbc0010I After 12700 nodes, 1244 on tree, 1e+50 best solution, best possible 15521.383 (2038.87 seconds)
Cbc0010I After 12800 nodes, 1260 on tree, 1e+50 best solution, best possible 15521.651 (2055.81 seconds)
Cbc0010I After 12900 nodes, 1282 on tree, 1e+50 best solution, best possible 15521.867 (2074.04 seconds)
Cbc0010I After 13000 nodes, 1302 on tree, 1e+50 best solution, best possible 15521.986 (2091.33 seconds)
Cbc0010I After 13100 nodes, 1315 on tree, 1e+50 best solution, best possible 15522.289 (2107.72 seconds)
Cbc0010I After 13200 nodes, 1318 on tree, 1e+50 best solution, best possible 15522.581 (2123.27 seconds)
Cbc0010I After 13300 nodes, 1331 on tree, 1e+50 best solution, best possible 15522.795 (2140.02 seconds)
Cbc0010I After 13400 nodes, 1341 on tree, 1e+50 best solution, best possible 15523.011 (2156.46 seconds)
Cbc0010I After 13500 nodes, 1358 on tree, 1e+50 best solution, best possible 15523.118 (2173.93 seconds)
Cbc0010I After 13600 nodes, 1369 on tree, 1e+50 best solution, best possible 15523.441 (2190.46 seconds)
Cbc0010I After 13700 nodes, 1392 on tree, 1e+50 best solution, best possible 15523.515 (2208.79 seconds)
Cbc0010I After 13800 nodes, 1409 on tree, 1e+50 best solution, best possible 15523.896 (2226.07 seconds)
Cbc0010I After 13900 nodes, 1416 on tree, 1e+50 best solution, best possible 15524.193 (2242.17 seconds)
Cbc0010I After 14000 nodes, 1436 on tree, 1e+50 best solution, best possible 15524.358 (2259.65 seconds)
Cbc0010I After 14100 nodes, 1451 on tree, 1e+50 best solution, best possible 15524.622 (2276.69 seconds)
Cbc0010I After 14200 nodes, 1467 on tree, 1e+50 best solution, best possible 15524.733 (2294.33 seconds)
Cbc0010I After 14300 nodes, 1479 on tree, 1e+50 best solution, best possible 15525.029 (2310.75 seconds)
Cbc0010I After 14400 nodes, 1484 on tree, 1e+50 best solution, best possible 15525.416 (2326.28 seconds)
Cbc0010I After 14500 nodes, 1494 on tree, 1e+50 best solution, best possible 15525.613 (2343.23 seconds)
Cbc0010I After 14600 nodes, 1513 on tree, 1e+50 best solution, best possible 15525.804 (2361.21 seconds)
Cbc0010I After 14700 nodes, 1530 on tree, 1e+50 best solution, best possible 15526.057 (2379.03 seconds)
Cbc0010I After 14800 nodes, 1546 on tree, 1e+50 best solution, best possible 15526.174 (2396.98 seconds)
Cbc0010I After 14900 nodes, 1551 on tree, 1e+50 best solution, best possible 15526.562 (2412.26 seconds)
Cbc0010I After 15000 nodes, 1556 on tree, 1e+50 best solution, best possible 15526.806 (2427.67 seconds)
Cbc0010I After 15100 nodes, 1573 on tree, 1e+50 best solution, best possible 15526.965 (2444.69 seconds)
Cbc0010I After 15200 nodes, 1588 on tree, 1e+50 best solution, best possible 15527.138 (2462.32 seconds)
Cbc0010I After 15300 nodes, 1603 on tree, 1e+50 best solution, best possible 15527.29 (2480.06 seconds)
Cbc0010I After 15400 nodes, 1613 on tree, 1e+50 best solution, best possible 15527.514 (2495.92 seconds)
Cbc0010I After 15500 nodes, 1623 on tree, 1e+50 best solution, best possible 15527.748 (2512.79 seconds)
Cbc0010I After 15600 nodes, 1638 on tree, 1e+50 best solution, best possible 15528.094 (2530.63 seconds)
Cbc0010I After 15700 nodes, 1648 on tree, 1e+50 best solution, best possible 15528.244 (2547.01 seconds)
Cbc0010I After 15800 nodes, 1663 on tree, 1e+50 best solution, best possible 15528.335 (2564.90 seconds)
Cbc0010I After 15900 nodes, 1677 on tree, 1e+50 best solution, best possible 15528.619 (2582.33 seconds)
Cbc0010I After 16000 nodes, 1697 on tree, 1e+50 best solution, best possible 15528.84 (2600.91 seconds)
Cbc0010I After 16100 nodes, 1705 on tree, 1e+50 best solution, best possible 15529.176 (2617.62 seconds)
Cbc0010I After 16200 nodes, 1716 on tree, 1e+50 best solution, best possible 15529.515 (2634.77 seconds)
Cbc0010I After 16300 nodes, 1727 on tree, 1e+50 best solution, best possible 15529.628 (2654.79 seconds)
Cbc0010I After 16400 nodes, 1741 on tree, 1e+50 best solution, best possible 15529.691 (2672.33 seconds)
Cbc0010I After 16500 nodes, 1749 on tree, 1e+50 best solution, best possible 15529.868 (2688.58 seconds)
Cbc0010I After 16600 nodes, 1754 on tree, 1e+50 best solution, best possible 15530.063 (2704.59 seconds)
Cbc0010I After 16700 nodes, 1763 on tree, 1e+50 best solution, best possible 15530.162 (2721.22 seconds)
Cbc0010I After 16800 nodes, 1773 on tree, 1e+50 best solution, best possible 15530.559 (2737.92 seconds)
Cbc0010I After 16900 nodes, 1781 on tree, 1e+50 best solution, best possible 15530.728 (2754.11 seconds)
Cbc0010I After 17000 nodes, 1788 on tree, 1e+50 best solution, best possible 15530.85 (2770.56 seconds)
Cbc0010I After 17100 nodes, 1801 on tree, 1e+50 best solution, best possible 15530.935 (2788.17 seconds)
Cbc0010I After 17200 nodes, 1816 on tree, 1e+50 best solution, best possible 15531.158 (2805.70 seconds)
Cbc0010I After 17300 nodes, 1830 on tree, 1e+50 best solution, best possible 15531.362 (2822.99 seconds)
Cbc0010I After 17400 nodes, 1838 on tree, 1e+50 best solution, best possible 15531.576 (2839.63 seconds)
Cbc0010I After 17500 nodes, 1847 on tree, 1e+50 best solution, best possible 15531.936 (2855.97 seconds)
Cbc0010I After 17600 nodes, 1853 on tree, 1e+50 best solution, best possible 15532.149 (2872.41 seconds)
Cbc0010I After 17700 nodes, 1863 on tree, 1e+50 best solution, best possible 15532.249 (2888.41 seconds)
Cbc0010I After 17800 nodes, 1877 on tree, 1e+50 best solution, best possible 15532.375 (2905.46 seconds)
Cbc0010I After 17900 nodes, 1889 on tree, 1e+50 best solution, best possible 15532.607 (2923.35 seconds)
Cbc0010I After 18000 nodes, 1897 on tree, 1e+50 best solution, best possible 15532.764 (2939.73 seconds)
Cbc0010I After 18100 nodes, 1903 on tree, 1e+50 best solution, best possible 15533.088 (2956.99 seconds)
Cbc0010I After 18200 nodes, 1908 on tree, 1e+50 best solution, best possible 15533.365 (2973.33 seconds)
Cbc0010I After 18300 nodes, 1920 on tree, 1e+50 best solution, best possible 15533.48 (2991.90 seconds)
Cbc0010I After 18400 nodes, 1927 on tree, 1e+50 best solution, best possible 15533.684 (3008.53 seconds)
Cbc0010I After 18500 nodes, 1939 on tree, 1e+50 best solution, best possible 15533.875 (3025.97 seconds)
Cbc0010I After 18600 nodes, 1949 on tree, 1e+50 best solution, best possible 15533.96 (3043.40 seconds)
Cbc0010I After 18700 nodes, 1957 on tree, 1e+50 best solution, best possible 15534.199 (3060.50 seconds)
Cbc0010I After 18800 nodes, 1968 on tree, 1e+50 best solution, best possible 15534.429 (3078.33 seconds)
Cbc0010I After 18900 nodes, 1977 on tree, 1e+50 best solution, best possible 15534.673 (3096.19 seconds)
Cbc0010I After 19000 nodes, 1981 on tree, 1e+50 best solution, best possible 15534.826 (3112.37 seconds)
Cbc0010I After 19100 nodes, 1989 on tree, 1e+50 best solution, best possible 15534.915 (3129.53 seconds)
Cbc0010I After 19200 nodes, 1996 on tree, 1e+50 best solution, best possible 15534.999 (3146.99 seconds)
Cbc0010I After 19300 nodes, 2001 on tree, 1e+50 best solution, best possible 15535.108 (3163.73 seconds)
Cbc0010I After 19400 nodes, 2008 on tree, 1e+50 best solution, best possible 15535.257 (3180.83 seconds)
Cbc0010I After 19500 nodes, 2018 on tree, 1e+50 best solution, best possible 15535.415 (3198.05 seconds)
Cbc0010I After 19600 nodes, 2031 on tree, 1e+50 best solution, best possible 15535.599 (3217.05 seconds)
Cbc0010I After 19700 nodes, 2037 on tree, 1e+50 best solution, best possible 15535.846 (3233.99 seconds)
Cbc0010I After 19800 nodes, 2048 on tree, 1e+50 best solution, best possible 15536.018 (3250.91 seconds)
Cbc0010I After 19900 nodes, 2051 on tree, 1e+50 best solution, best possible 15536.152 (3266.59 seconds)
Cbc0010I After 20000 nodes, 2061 on tree, 1e+50 best solution, best possible 15536.264 (3284.29 seconds)
Cbc0010I After 20100 nodes, 2074 on tree, 1e+50 best solution, best possible 15536.361 (3301.58 seconds)
Cbc0010I After 20200 nodes, 2085 on tree, 1e+50 best solution, best possible 15536.484 (3319.86 seconds)
Cbc0010I After 20300 nodes, 2095 on tree, 1e+50 best solution, best possible 15536.608 (3338.06 seconds)
Cbc0010I After 20400 nodes, 2100 on tree, 1e+50 best solution, best possible 15536.773 (3355.37 seconds)
Cbc0010I After 20500 nodes, 2108 on tree, 1e+50 best solution, best possible 15536.934 (3373.00 seconds)
Cbc0010I After 20600 nodes, 2108 on tree, 1e+50 best solution, best possible 15537.052 (3389.49 seconds)
Cbc0010I After 20700 nodes, 2114 on tree, 1e+50 best solution, best possible 15537.134 (3406.51 seconds)
Cbc0010I After 20800 nodes, 2121 on tree, 1e+50 best solution, best possible 15537.258 (3424.09 seconds)
Cbc0010I After 20900 nodes, 2130 on tree, 1e+50 best solution, best possible 15537.422 (3441.16 seconds)
Cbc0010I After 21000 nodes, 2134 on tree, 1e+50 best solution, best possible 15537.553 (3457.30 seconds)
Cbc0010I After 21100 nodes, 2139 on tree, 1e+50 best solution, best possible 15537.637 (3474.03 seconds)
Cbc0010I After 21200 nodes, 2143 on tree, 1e+50 best solution, best possible 15537.719 (3490.32 seconds)
Cbc0010I After 21300 nodes, 2150 on tree, 1e+50 best solution, best possible 15537.8 (3506.99 seconds)
Cbc0010I After 21400 nodes, 2153 on tree, 1e+50 best solution, best possible 15537.954 (3523.83 seconds)
Cbc0010I After 21500 nodes, 2160 on tree, 1e+50 best solution, best possible 15538.123 (3540.76 seconds)
Cbc0010I After 21600 nodes, 2171 on tree, 1e+50 best solution, best possible 15538.227 (3558.06 seconds)
Cbc0010I After 21700 nodes, 2178 on tree, 1e+50 best solution, best possible 15538.36 (3574.91 seconds)
Cbc0020I Exiting on maximum time
Cbc0005I Partial search - best objective 1e+50 (best possible 15538.36), took 435613 iterations and 21740 nodes (3599.79 seconds)
Cbc0035I Maximum depth 297, 0 variables fixed on reduced cost

 	"Not finished"

Linearization cuts added at root node:       6501
Linearization cuts added in total:           6501  (separation time: 0.046558s)
Total solve time:                          3599.9s (3599.9s in branch-and-bound)
Lower bound:                              15538.4
Upper bound:                              15557.9  (gap: 0.13%)
Branch-and-bound nodes:                     21740
Stats: /tmp/jl_XHAJLz/model.nl 6090 [var]   30 [int] 6260 [con]  289 [aux]   6501 [root]     6501 [tot] 0.046558 [sep]   3599.9 [time]  3599.91 [bb]         1.553836e+04 [lower]         1.555786e+04 [upper]   21740 [nodes]
Performance of                           FBBT:	    394.904s,    29464 runs. fix:          0 shrnk:    1.78696 ubd:          0 2ubd:          0 infeas:          0
Performance of                           OBBT:	    11.2717s,        4 runs. fix:          0 shrnk:          0 ubd:          0 2ubd:          0 infeas:          0
ERROR: LoadError: MathOptInterface.GetAttributeNotAllowed{MathOptInterface.ObjectiveBound}: Getting attribute MathOptInterface.ObjectiveBound() cannot be performed: AmplNLWriter.Optimizer does not support getting the attribute MathOptInterface.ObjectiveBound(). You may want to use a `CachingOptimizer` in `AUTOMATIC` mode or you may need to call `reset_optimizer` before doing this operation if the `CachingOptimizer` is in `MANUAL` mode.
Stacktrace:
  [1] get_fallback(model::AmplNLWriter.Optimizer, attr::MathOptInterface.ObjectiveBound)
    @ MathOptInterface ~/.julia/packages/MathOptInterface/gLl4d/src/attributes.jl:409
  [2] get(::AmplNLWriter.Optimizer, ::MathOptInterface.ObjectiveBound)
    @ MathOptInterface ~/.julia/packages/MathOptInterface/gLl4d/src/attributes.jl:390
  [3] _get_model_attribute(model::MathOptInterface.Utilities.CachingOptimizer{AmplNLWriter.Optimizer, MathOptInterface.Utilities.UniversalFallback{MathOptInterface.Utilities.Model{Float64}}}, attr::MathOptInterface.ObjectiveBound)
    @ MathOptInterface.Utilities ~/.julia/packages/MathOptInterface/gLl4d/src/Utilities/cachingoptimizer.jl:865
  [4] get(model::MathOptInterface.Utilities.CachingOptimizer{AmplNLWriter.Optimizer, MathOptInterface.Utilities.UniversalFallback{MathOptInterface.Utilities.Model{Float64}}}, attr::MathOptInterface.ObjectiveBound)
    @ MathOptInterface.Utilities ~/.julia/packages/MathOptInterface/gLl4d/src/Utilities/cachingoptimizer.jl:900
  [5] get(b::MathOptInterface.Bridges.LazyBridgeOptimizer{MathOptInterface.Utilities.CachingOptimizer{AmplNLWriter.Optimizer, MathOptInterface.Utilities.UniversalFallback{MathOptInterface.Utilities.Model{Float64}}}}, attr::MathOptInterface.ObjectiveBound)
    @ MathOptInterface.Bridges ~/.julia/packages/MathOptInterface/gLl4d/src/Bridges/bridge_optimizer.jl:889
  [6] _get_model_attribute(model::MathOptInterface.Utilities.CachingOptimizer{MathOptInterface.Bridges.LazyBridgeOptimizer{MathOptInterface.Utilities.CachingOptimizer{AmplNLWriter.Optimizer, MathOptInterface.Utilities.UniversalFallback{MathOptInterface.Utilities.Model{Float64}}}}, MathOptInterface.Utilities.UniversalFallback{MathOptInterface.Utilities.Model{Float64}}}, attr::MathOptInterface.ObjectiveBound)
    @ MathOptInterface.Utilities ~/.julia/packages/MathOptInterface/gLl4d/src/Utilities/cachingoptimizer.jl:865
  [7] get(model::MathOptInterface.Utilities.CachingOptimizer{MathOptInterface.Bridges.LazyBridgeOptimizer{MathOptInterface.Utilities.CachingOptimizer{AmplNLWriter.Optimizer, MathOptInterface.Utilities.UniversalFallback{MathOptInterface.Utilities.Model{Float64}}}}, MathOptInterface.Utilities.UniversalFallback{MathOptInterface.Utilities.Model{Float64}}}, attr::MathOptInterface.ObjectiveBound)
    @ MathOptInterface.Utilities ~/.julia/packages/MathOptInterface/gLl4d/src/Utilities/cachingoptimizer.jl:900
  [8] _moi_get_result(model::MathOptInterface.Utilities.CachingOptimizer{MathOptInterface.Bridges.LazyBridgeOptimizer{MathOptInterface.Utilities.CachingOptimizer{AmplNLWriter.Optimizer, MathOptInterface.Utilities.UniversalFallback{MathOptInterface.Utilities.Model{Float64}}}}, MathOptInterface.Utilities.UniversalFallback{MathOptInterface.Utilities.Model{Float64}}}, args::MathOptInterface.ObjectiveBound)
    @ JuMP ~/.julia/packages/JuMP/i68GU/src/optimizer_interface.jl:1053
  [9] get(model::JuMP.Model, attr::MathOptInterface.ObjectiveBound)
    @ JuMP ~/.julia/packages/JuMP/i68GU/src/optimizer_interface.jl:1073
 [10] objective_bound(model::JuMP.Model)
    @ JuMP ~/.julia/packages/JuMP/i68GU/src/objective.jl:78
 [11] nl_uflp_nldep(filename::String, cost::Symbol, solver::AmplNLWriter.Optimizer, solver_params::Vector{Any}; solve::Bool, write_nl::Bool, with_cap_constraint::Bool)
    @ IterativePWLB ~/git/ipwlb/code/sources/IterativePWLB/src/nlsolver.jl:783
 [12] top-level scope
    @ ~/git/ipwlb/code/sources/IterativePWLB/test/couenne/uflp_nldep/script.jl:15
in expression starting at /home/ccontard/git/ipwlb/code/sources/IterativePWLB/test/couenne/uflp_nldep/script.jl:15
reading holmberg data file /home/ccontard/git/ipwlb/code/instances/uflp/holmberg/p69
